Jobbapp/solver/solve.ozn
output ["%S = "++show(S)];
int: n = 3;
array [1..n] of int: S;
